NAME          
ROWS
 N  OBJ
 L  c1
COLUMNS
    MARKER    'MARKER'                 'INTORG'
    x[1]      c1        58
    x[1]      OBJ       -216
    x[2]      c1        944
    x[2]      OBJ       -240
    x[3]      c1        83
    x[3]      OBJ       -489
    x[4]      c1        910
    x[4]      OBJ       -369
    x[5]      c1        514
    x[5]      OBJ       -251
    x[6]      c1        444
    x[6]      OBJ       -70
    x[7]      c1        1000
    x[7]      OBJ       -716
    x[8]      c1        842
    x[8]      OBJ       -94
    x[9]      c1        93
    x[9]      OBJ       -27
    x[10]     c1        737
    x[10]     OBJ       -544
    x[11]     c1        309
    x[11]     OBJ       -589
    x[12]     c1        23
    x[12]     OBJ       -776
    x[13]     c1        300
    x[13]     OBJ       -266
    x[14]     c1        827
    x[14]     OBJ       -176
    x[15]     c1        437
    x[15]     OBJ       -497
    x[16]     c1        664
    x[16]     OBJ       -120
    x[17]     c1        835
    x[17]     OBJ       -674
    x[18]     c1        812
    x[18]     OBJ       -769
    x[19]     c1        460
    x[19]     OBJ       -882
    x[20]     c1        747
    x[20]     OBJ       -139
    x[21]     c1        418
    x[21]     OBJ       -513
    x[22]     c1        175
    x[22]     OBJ       -970
    x[23]     c1        81
    x[23]     OBJ       -275
    x[24]     c1        709
    x[24]     OBJ       -747
    x[25]     c1        5
    x[25]     OBJ       -558
    x[26]     c1        292
    x[26]     OBJ       -986
    x[27]     c1        330
    x[27]     OBJ       -177
    x[28]     c1        961
    x[28]     OBJ       -941
    x[29]     c1        844
    x[29]     OBJ       -117
    x[30]     c1        166
    x[30]     OBJ       -909
    x[31]     c1        26
    x[31]     OBJ       -727
    x[32]     c1        423
    x[32]     OBJ       -857
    x[33]     c1        239
    x[33]     OBJ       -500
    x[34]     c1        652
    x[34]     OBJ       -268
    x[35]     c1        89
    x[35]     OBJ       -419
    x[36]     c1        534
    x[36]     OBJ       -149
    x[37]     c1        282
    x[37]     OBJ       -313
    x[38]     c1        700
    x[38]     OBJ       -31
    x[39]     c1        746
    x[39]     OBJ       -9
    x[40]     c1        235
    x[40]     OBJ       -344
    x[41]     c1        67
    x[41]     OBJ       -175
    x[42]     c1        568
    x[42]     OBJ       -263
    x[43]     c1        420
    x[43]     OBJ       -957
    x[44]     c1        464
    x[44]     OBJ       -158
    x[45]     c1        54
    x[45]     OBJ       -919
    x[46]     c1        676
    x[46]     OBJ       -304
    x[47]     c1        90
    x[47]     OBJ       -17
    x[48]     c1        250
    x[48]     OBJ       -706
    x[49]     c1        182
    x[49]     OBJ       -271
    x[50]     c1        704
    x[50]     OBJ       -691
RHS
    rhs       c1        11210
RANGES
BOUNDS
 BV bounds    x[1]
 BV bounds    x[2]
 BV bounds    x[3]
 BV bounds    x[4]
 BV bounds    x[5]
 BV bounds    x[6]
 BV bounds    x[7]
 BV bounds    x[8]
 BV bounds    x[9]
 BV bounds    x[10]
 BV bounds    x[11]
 BV bounds    x[12]
 BV bounds    x[13]
 BV bounds    x[14]
 BV bounds    x[15]
 BV bounds    x[16]
 BV bounds    x[17]
 BV bounds    x[18]
 BV bounds    x[19]
 BV bounds    x[20]
 BV bounds    x[21]
 BV bounds    x[22]
 BV bounds    x[23]
 BV bounds    x[24]
 BV bounds    x[25]
 BV bounds    x[26]
 BV bounds    x[27]
 BV bounds    x[28]
 BV bounds    x[29]
 BV bounds    x[30]
 BV bounds    x[31]
 BV bounds    x[32]
 BV bounds    x[33]
 BV bounds    x[34]
 BV bounds    x[35]
 BV bounds    x[36]
 BV bounds    x[37]
 BV bounds    x[38]
 BV bounds    x[39]
 BV bounds    x[40]
 BV bounds    x[41]
 BV bounds    x[42]
 BV bounds    x[43]
 BV bounds    x[44]
 BV bounds    x[45]
 BV bounds    x[46]
 BV bounds    x[47]
 BV bounds    x[48]
 BV bounds    x[49]
 BV bounds    x[50]
ENDATA
